c Created with the Wolfram Language : www.wolfram.com
c 
p edge 80 497
e 3 4
e 2 5
e 4 6
e 3 7
e 5 7
e 1 8
e 3 8
e 4 9
e 5 9
e 4 10
e 1 11
e 3 11
e 2 12
e 5 13
e 9 13
e 1 14
e 12 14
e 5 15
e 1 16
e 2 16
e 4 16
e 6 16
e 9 16
e 15 16
e 1 17
e 13 17
e 14 17
e 9 18
e 13 18
e 15 18
e 16 18
e 17 18
e 5 19
e 13 19
e 3 20
e 4 20
e 14 20
e 17 20
e 6 21
e 3 22
e 9 22
e 20 22
e 2 23
e 5 24
e 7 24
e 12 24
e 19 24
e 21 25
e 2 26
e 6 26
e 14 26
e 15 26
e 21 26
e 2 27
e 6 27
e 14 27
e 19 27
e 20 27
e 21 27
e 22 27
e 23 27
e 3 28
e 6 28
e 16 28
e 23 28
e 7 29
e 9 29
e 12 29
e 15 29
e 24 29
e 15 30
e 22 30
e 15 31
e 17 31
e 24 31
e 28 31
e 11 32
e 19 32
e 28 32
e 11 33
e 21 33
e 23 33
e 25 33
e 1 34
e 4 34
e 8 34
e 12 34
e 19 34
e 28 34
e 1 35
e 9 35
e 13 35
e 20 35
e 22 35
e 33 35
e 13 36
e 16 36
e 18 36
e 30 36
e 4 37
e 11 37
e 12 37
e 16 37
e 23 37
e 32 37
e 3 38
e 4 38
e 12 38
e 18 39
e 24 39
e 25 39
e 27 39
e 32 39
e 1 40
e 6 40
e 7 40
e 12 40
e 13 40
e 15 40
e 25 40
e 26 40
e 27 40
e 32 40
e 9 41
e 11 41
e 14 41
e 21 41
e 2 42
e 9 42
e 11 42
e 15 42
e 22 42
e 33 42
e 34 42
e 35 42
e 37 42
e 41 42
e 3 43
e 17 43
e 20 43
e 37 43
e 4 44
e 12 44
e 14 44
e 19 44
e 22 44
e 32 44
e 33 44
e 42 44
e 3 45
e 10 45
e 17 45
e 32 45
e 33 45
e 37 45
e 38 45
e 6 46
e 9 46
e 13 46
e 26 46
e 33 46
e 8 47
e 22 47
e 23 47
e 26 47
e 32 47
e 44 47
e 1 48
e 13 48
e 17 48
e 30 48
e 37 48
e 6 49
e 19 49
e 22 49
e 32 49
e 36 49
e 45 49
e 48 49
e 1 50
e 4 50
e 7 50
e 9 50
e 19 50
e 22 50
e 24 50
e 38 50
e 39 50
e 46 50
e 47 50
e 8 51
e 14 51
e 28 51
e 33 51
e 44 51
e 45 51
e 47 51
e 1 52
e 3 52
e 9 52
e 13 52
e 17 52
e 25 52
e 34 52
e 37 52
e 48 52
e 5 53
e 20 53
e 24 53
e 28 53
e 36 53
e 50 53
e 2 54
e 3 54
e 8 54
e 18 54
e 23 54
e 24 54
e 26 54
e 31 54
e 34 54
e 40 54
e 41 54
e 43 54
e 45 54
e 47 54
e 50 54
e 8 55
e 24 55
e 38 55
e 39 55
e 6 56
e 10 56
e 14 56
e 24 56
e 28 56
e 48 56
e 55 56
e 12 57
e 13 57
e 26 57
e 27 57
e 33 57
e 38 57
e 42 57
e 49 57
e 52 57
e 4 58
e 10 58
e 19 58
e 23 58
e 25 58
e 29 58
e 35 58
e 36 58
e 37 58
e 40 58
e 42 58
e 46 58
e 48 58
e 51 58
e 57 58
e 1 59
e 3 59
e 11 59
e 13 59
e 18 59
e 19 59
e 30 59
e 33 59
e 34 59
e 42 59
e 45 59
e 46 59
e 49 59
e 54 59
e 1 60
e 33 60
e 45 60
e 46 60
e 47 60
e 48 60
e 50 60
e 55 60
e 57 60
e 9 61
e 14 61
e 27 61
e 34 61
e 38 61
e 41 61
e 49 61
e 59 61
e 8 62
e 22 62
e 32 62
e 33 62
e 48 62
e 50 62
e 1 63
e 5 63
e 7 63
e 11 63
e 17 63
e 19 63
e 20 63
e 21 63
e 28 63
e 34 63
e 40 63
e 45 63
e 46 63
e 54 63
e 57 63
e 5 64
e 17 64
e 31 64
e 34 64
e 55 64
e 63 64
e 9 65
e 17 65
e 25 65
e 29 65
e 37 65
e 43 65
e 44 65
e 46 65
e 49 65
e 50 65
e 60 65
e 61 65
e 62 65
e 64 65
e 9 66
e 15 66
e 22 66
e 34 66
e 59 66
e 1 67
e 10 67
e 12 67
e 14 67
e 24 67
e 33 67
e 39 67
e 49 67
e 53 67
e 61 67
e 66 67
e 2 68
e 20 68
e 38 68
e 42 68
e 45 68
e 46 68
e 55 68
e 56 68
e 63 68
e 66 68
e 1 69
e 3 69
e 15 69
e 18 69
e 27 69
e 28 69
e 35 69
e 38 69
e 40 69
e 48 69
e 51 69
e 62 69
e 68 69
e 11 70
e 14 70
e 15 70
e 43 70
e 64 70
e 5 71
e 10 71
e 17 71
e 27 71
e 31 71
e 41 71
e 48 71
e 51 71
e 61 71
e 65 71
e 66 71
e 68 71
e 7 72
e 21 72
e 28 72
e 29 72
e 30 72
e 37 72
e 44 72
e 49 72
e 59 72
e 61 72
e 67 72
e 69 72
e 1 73
e 13 73
e 14 73
e 16 73
e 31 73
e 32 73
e 36 73
e 42 73
e 43 73
e 45 73
e 52 73
e 54 73
e 60 73
e 64 73
e 66 73
e 68 73
e 18 74
e 24 74
e 27 74
e 30 74
e 34 74
e 41 74
e 46 74
e 55 74
e 68 74
e 72 74
e 9 75
e 11 75
e 14 75
e 20 75
e 32 75
e 36 75
e 37 75
e 49 75
e 55 75
e 58 75
e 61 75
e 63 75
e 69 75
e 73 75
e 1 76
e 19 76
e 20 76
e 25 76
e 27 76
e 37 76
e 38 76
e 44 76
e 45 76
e 47 76
e 49 76
e 53 76
e 56 76
e 75 76
e 13 77
e 17 77
e 23 77
e 24 77
e 29 77
e 40 77
e 46 77
e 48 77
e 49 77
e 55 77
e 73 77
e 76 77
e 12 78
e 20 78
e 31 78
e 50 78
e 60 78
e 61 78
e 5 79
e 8 79
e 14 79
e 25 79
e 30 79
e 38 79
e 41 79
e 44 79
e 50 79
e 54 79
e 55 79
e 61 79
e 67 79
e 68 79
e 71 79
e 74 79
e 4 80
e 26 80
e 33 80
e 36 80
e 37 80
e 53 80
e 58 80
